c 3 2 ?
p cnf 4 10
-2,3,0
-1,4,0
-2,4,0
-4,-2,0
-4,-1,0
1,1,0
4,4,0
-4,-3,0
-1,-4,0
3,3,0
c 4 2 ?
p cnf 4 10
2,1,0
-4,-1,0
1,-3,0
2,-3,0
1,-2,0
3,-2,0
3,-3,0
3,-2,0
2,-3,0
-3,3,0
c 5 2 ?
p cnf 4 10
3,1,0
-2,-2,0
3,2,0
-1,-1,0
4,2,0
-2,2,0
-2,-1,0
-2,-2,0
3,-2,0
-2,4,0
c 9 2 ?
p cnf 2 0
c 8 2 ?
p cnf 1 1
0
c 7 2 ?
p cnf 1 1
1 -1 0
c 6 2 ?
p cnf 1 2
1 0
-1 0
c 10 2 ?
p cnf 25 2
1 0
-1 0
c 12 2 ?
p cnf 25 26
1 0
-1 2 0
-2 3 0
-3 4 0
-4 5 0
-5 6 0
-6 7 0
-7 8 0
-8 9 0
-9 10 0
-10 11 0
-11 12 0
-12 13 0
-13 14 0
-14 15 0
-15 16 0
-16 17 0
-17 18 0
-18 19 0
-19 20 0
-20 21 0
-21 22 0
-22 23 0
-23 24 0
-24 25 0
-25 0
p cnf 16 17
1 0
-1 2 0
-2 3 0
-3 4 0
-4 5 0
-5 6 0
-6 7 0
-7 8 0
-8 9 0
-9 10 0
-10 11 0
-11 12 0
-12 13 0
-13 14 0
-14 15 0
-15 16 0
-16 0
c 14 2 ?
p cnf 22 23
1 0
-1 2 0
-2 3 0
-3 4 0
-4 5 0
-5 6 0
-6 7 0
-7 8 0
-8 9 0
-9 10 0
-10 11 0
-11 12 0
-12 13 0
-13 14 0
-14 15 0
-15 16 0
-16 17 0
-17 18 0
-18 19 0
-19 20 0
-20 21 0
-21 22 0
-22 0

